c WARNING: for repeatability, setting FPU to use double precision
d VARIABLES            191848       
d CONSTRAINTS          881649       
c ============================[ Problem Statistics ]=============================
c |                                                                             |
c |  Number of variables:        191848                                         |
c |  Number of clauses:          881649                                         |
c |  Parse time:                   0.13 s                                       |
c |                                                                             |
c ============================[ Search Statistics ]==============================
c | Conflicts |          ORIGINAL         |          LEARNT          | Progress |
c |           |    Vars  Clauses Literals |    Limit  Clauses Lit/Cl |          |
c ===============================================================================
c |       100 |  170683   821749  1985614 |   301307      100     10 | 11.032 % |
c |       250 |  170683   821749  1985614 |   331438      250     38 | 11.032 % |
c |       475 |  170683   821749  1985614 |   364582      475     47 | 11.032 % |
c |       812 |  170683   821749  1985614 |   401040      812     54 | 11.032 % |
c |      1318 |  170683   821749  1985614 |   441144     1318     67 | 11.032 % |
c |      2077 |  170683   821749  1985614 |   485259     2077     60 | 11.032 % |
c |      3216 |  170683   821749  1985614 |   533785     3216     46 | 11.032 % |
c |      4924 |  170683   821749  1985614 |   587163     4924     55 | 11.032 % |
c |      7486 |  170683   821749  1985614 |   645880     7486     80 | 11.032 % |
c |     11330 |  170683   821749  1985614 |   710468    11330    101 | 11.032 % |
c |     17096 |  170683   821749  1985614 |   781515    17096    104 | 11.032 % |
c |     25745 |  170683   821749  1985614 |   859666    25745    106 | 11.032 % |
c |     38719 |  170683   821749  1985614 |   945633    38719    120 | 11.032 % |
c |     58180 |  170683   821749  1985614 |  1040196    58180    120 | 11.032 % |
c |     87372 |  170683   821749  1985614 |  1144216    87372    134 | 11.032 % |
c |    131161 |  170683   821749  1985614 |  1258638   131161    145 | 11.032 % |
c |    196845 |  170683   821749  1985614 |  1384501   196845    151 | 11.032 % |
c |    295371 |  170683   821749  1985614 |  1522952   295371    157 | 11.032 % |
c |    443160 |  170683   821749  1985614 |  1675247   443160    158 | 11.032 % |
c |    664843 |  170683   821749  1985614 |  1842772   664843    155 | 11.032 % |
c |    997368 |  170683   821749  1985614 |  2027049   997368    170 | 11.032 % |
c ===============================================================================
c restarts              : 2558
c conflicts             : 1355351        (1071 /sec)
c decisions             : 4614419        (0.00 % random) (3646 /sec)
c propagations          : 3141236452     (2481725 /sec)
c conflict literals     : 278199758      (28.30 % deleted)
d RESTARTS             2558
d FAILURES             1355351      
d NODES                4614419      
d BACKTRACKS           4614419      
d PROPAGATIONS         3141236452   
d NOGOODSIZE           205.26 
d MEMORY               1586.00 
d TIME                 1265.75 

s SATISFIABLE
